\ LP format - for model browsing. Use MPS format to capture full model detail.
Maximize
  x0,1_1 + x0,1_12 + x0,1_17 + x0,1_18 + x0,1_21 + x0,1_22 + x0,1_30
   + x0,1_35 + x0,1_38 + x0,1_39 + x0,1_47 + x0,1_56 + x0,1_57 + x0,1_68
   + x0,1_69 + x0,2_1 + x0,2_12 + x0,2_17 + x0,2_18 + x0,2_21 + x0,2_22
   + x0,2_30 + x0,2_35 + x0,2_38 + x0,2_39 + x0,2_47 + x0,2_56 + x0,2_57
   + x0,2_68 + x0,2_69 + x0,3_1 + x0,3_12 + x0,3_17 + x0,3_18 + x0,3_21
   + x0,3_22 + x0,3_30 + x0,3_35 + x0,3_38 + x0,3_39 + x0,3_47 + x0,3_56
   + x0,3_57 + x0,3_68 + x0,3_69 + x0,4_1 + x0,4_12 + x0,4_17 + x0,4_18
   + x0,4_21 + x0,4_22 + x0,4_30 + x0,4_35 + x0,4_38 + x0,4_39 + x0,4_47
   + x0,4_56 + x0,4_57 + x0,4_68 + x0,4_69 + x0,5_1 + x0,5_12 + x0,5_17
   + x0,5_18 + x0,5_21 + x0,5_22 + x0,5_30 + x0,5_35 + x0,5_38 + x0,5_39
   + x0,5_47 + x0,5_56 + x0,5_57 + x0,5_68 + x0,5_69 + x0,6_1 + x0,6_12
   + x0,6_17 + x0,6_18 + x0,6_21 + x0,6_22 + x0,6_30 + x0,6_35 + x0,6_38
   + x0,6_39 + x0,6_47 + x0,6_56 + x0,6_57 + x0,6_68 + x0,6_69 + x1,2_1
   + x1,2_12 + x1,2_17 + x1,2_18 + x1,2_21 + x1,2_22 + x1,2_30 + x1,2_35
   + x1,2_38 + x1,2_39 + x1,2_47 + x1,2_56 + x1,2_57 + x1,2_68 + x1,2_69
   + x1,3_1 + x1,3_12 + x1,3_17 + x1,3_18 + x1,3_21 + x1,3_22 + x1,3_30
   + x1,3_35 + x1,3_38 + x1,3_39 + x1,3_47 + x1,3_56 + x1,3_57 + x1,3_68
   + x1,3_69 + x1,4_1 + x1,4_12 + x1,4_17 + x1,4_18 + x1,4_21 + x1,4_22
   + x1,4_30 + x1,4_35 + x1,4_38 + x1,4_39 + x1,4_47 + x1,4_56 + x1,4_57
   + x1,4_68 + x1,4_69 + x1,5_1 + x1,5_12 + x1,5_17 + x1,5_18 + x1,5_21
   + x1,5_22 + x1,5_30 + x1,5_35 + x1,5_38 + x1,5_39 + x1,5_47 + x1,5_56
   + x1,5_57 + x1,5_68 + x1,5_69 + x1,6_1 + x1,6_12 + x1,6_17 + x1,6_18
   + x1,6_21 + x1,6_22 + x1,6_30 + x1,6_35 + x1,6_38 + x1,6_39 + x1,6_47
   + x1,6_56 + x1,6_57 + x1,6_68 + x1,6_69 + x2,3_1 + x2,3_12 + x2,3_17
   + x2,3_18 + x2,3_21 + x2,3_22 + x2,3_30 + x2,3_35 + x2,3_38 + x2,3_39
   + x2,3_47 + x2,3_56 + x2,3_57 + x2,3_68 + x2,3_69 + x2,4_1 + x2,4_12
   + x2,4_17 + x2,4_18 + x2,4_21 + x2,4_22 + x2,4_30 + x2,4_35 + x2,4_38
   + x2,4_39 + x2,4_47 + x2,4_56 + x2,4_57 + x2,4_68 + x2,4_69 + x2,5_1
   + x2,5_12 + x2,5_17 + x2,5_18 + x2,5_21 + x2,5_22 + x2,5_30 + x2,5_35
   + x2,5_38 + x2,5_39 + x2,5_47 + x2,5_56 + x2,5_57 + x2,5_68 + x2,5_69
   + x2,6_1 + x2,6_12 + x2,6_17 + x2,6_18 + x2,6_21 + x2,6_22 + x2,6_30
   + x2,6_35 + x2,6_38 + x2,6_39 + x2,6_47 + x2,6_56 + x2,6_57 + x2,6_68
   + x2,6_69 + x3,4_1 + x3,4_12 + x3,4_17 + x3,4_18 + x3,4_21 + x3,4_22
   + x3,4_30 + x3,4_35 + x3,4_38 + x3,4_39 + x3,4_47 + x3,4_56 + x3,4_57
   + x3,4_68 + x3,4_69 + x3,5_1 + x3,5_12 + x3,5_17 + x3,5_18 + x3,5_21
   + x3,5_22 + x3,5_30 + x3,5_35 + x3,5_38 + x3,5_39 + x3,5_47 + x3,5_56
   + x3,5_57 + x3,5_68 + x3,5_69 + x3,6_1 + x3,6_12 + x3,6_17 + x3,6_18
   + x3,6_21 + x3,6_22 + x3,6_30 + x3,6_35 + x3,6_38 + x3,6_39 + x3,6_47
   + x3,6_56 + x3,6_57 + x3,6_68 + x3,6_69 + x4,5_1 + x4,5_12 + x4,5_17
   + x4,5_18 + x4,5_21 + x4,5_22 + x4,5_30 + x4,5_35 + x4,5_38 + x4,5_39
   + x4,5_47 + x4,5_56 + x4,5_57 + x4,5_68 + x4,5_69 + x4,6_1 + x4,6_12
   + x4,6_17 + x4,6_18 + x4,6_21 + x4,6_22 + x4,6_30 + x4,6_35 + x4,6_38
   + x4,6_39 + x4,6_47 + x4,6_56 + x4,6_57 + x4,6_68 + x4,6_69 + x5,6_1
   + x5,6_12 + x5,6_17 + x5,6_18 + x5,6_21 + x5,6_22 + x5,6_30 + x5,6_35
   + x5,6_38 + x5,6_39 + x5,6_47 + x5,6_56 + x5,6_57 + x5,6_68 + x5,6_69
Subject To
 R0: x0,1_1 + x0,2_1 + x0,3_1 + x0,4_1 + x0,5_1 + x0,6_1 + x1,2_1 + x1,3_1
   + x1,4_1 + x1,5_1 + x1,6_1 + x2,3_1 + x2,4_1 + x2,5_1 + x2,6_1 + x3,4_1
   + x3,5_1 + x3,6_1 + x4,5_1 + x4,6_1 + x5,6_1 <= 1
 R1: x0,1_12 + x0,2_12 + x0,3_12 + x0,4_12 + x0,5_12 + x0,6_12 + x1,2_12
   + x1,3_12 + x1,4_12 + x1,5_12 + x1,6_12 + x2,3_12 + x2,4_12 + x2,5_12
   + x2,6_12 + x3,4_12 + x3,5_12 + x3,6_12 + x4,5_12 + x4,6_12 + x5,6_12
   <= 1
 R2: x0,1_17 + x0,2_17 + x0,3_17 + x0,4_17 + x0,5_17 + x0,6_17 + x1,2_17
   + x1,3_17 + x1,4_17 + x1,5_17 + x1,6_17 + x2,3_17 + x2,4_17 + x2,5_17
   + x2,6_17 + x3,4_17 + x3,5_17 + x3,6_17 + x4,5_17 + x4,6_17 + x5,6_17
   <= 1
 R3: x0,1_18 + x0,2_18 + x0,3_18 + x0,4_18 + x0,5_18 + x0,6_18 + x1,2_18
   + x1,3_18 + x1,4_18 + x1,5_18 + x1,6_18 + x2,3_18 + x2,4_18 + x2,5_18
   + x2,6_18 + x3,4_18 + x3,5_18 + x3,6_18 + x4,5_18 + x4,6_18 + x5,6_18
   <= 1
 R4: x0,1_21 + x0,2_21 + x0,3_21 + x0,4_21 + x0,5_21 + x0,6_21 + x1,2_21
   + x1,3_21 + x1,4_21 + x1,5_21 + x1,6_21 + x2,3_21 + x2,4_21 + x2,5_21
   + x2,6_21 + x3,4_21 + x3,5_21 + x3,6_21 + x4,5_21 + x4,6_21 + x5,6_21
   <= 1
 R5: x0,1_22 + x0,2_22 + x0,3_22 + x0,4_22 + x0,5_22 + x0,6_22 + x1,2_22
   + x1,3_22 + x1,4_22 + x1,5_22 + x1,6_22 + x2,3_22 + x2,4_22 + x2,5_22
   + x2,6_22 + x3,4_22 + x3,5_22 + x3,6_22 + x4,5_22 + x4,6_22 + x5,6_22
   <= 1
 R6: x0,1_30 + x0,2_30 + x0,3_30 + x0,4_30 + x0,5_30 + x0,6_30 + x1,2_30
   + x1,3_30 + x1,4_30 + x1,5_30 + x1,6_30 + x2,3_30 + x2,4_30 + x2,5_30
   + x2,6_30 + x3,4_30 + x3,5_30 + x3,6_30 + x4,5_30 + x4,6_30 + x5,6_30
   <= 1
 R7: x0,1_35 + x0,2_35 + x0,3_35 + x0,4_35 + x0,5_35 + x0,6_35 + x1,2_35
   + x1,3_35 + x1,4_35 + x1,5_35 + x1,6_35 + x2,3_35 + x2,4_35 + x2,5_35
   + x2,6_35 + x3,4_35 + x3,5_35 + x3,6_35 + x4,5_35 + x4,6_35 + x5,6_35
   <= 1
 R8: x0,1_38 + x0,2_38 + x0,3_38 + x0,4_38 + x0,5_38 + x0,6_38 + x1,2_38
   + x1,3_38 + x1,4_38 + x1,5_38 + x1,6_38 + x2,3_38 + x2,4_38 + x2,5_38
   + x2,6_38 + x3,4_38 + x3,5_38 + x3,6_38 + x4,5_38 + x4,6_38 + x5,6_38
   <= 1
 R9: x0,1_39 + x0,2_39 + x0,3_39 + x0,4_39 + x0,5_39 + x0,6_39 + x1,2_39
   + x1,3_39 + x1,4_39 + x1,5_39 + x1,6_39 + x2,3_39 + x2,4_39 + x2,5_39
   + x2,6_39 + x3,4_39 + x3,5_39 + x3,6_39 + x4,5_39 + x4,6_39 + x5,6_39
   <= 1
 R10: x0,1_47 + x0,2_47 + x0,3_47 + x0,4_47 + x0,5_47 + x0,6_47 + x1,2_47
   + x1,3_47 + x1,4_47 + x1,5_47 + x1,6_47 + x2,3_47 + x2,4_47 + x2,5_47
   + x2,6_47 + x3,4_47 + x3,5_47 + x3,6_47 + x4,5_47 + x4,6_47 + x5,6_47
   <= 1
 R11: x0,1_56 + x0,2_56 + x0,3_56 + x0,4_56 + x0,5_56 + x0,6_56 + x1,2_56
   + x1,3_56 + x1,4_56 + x1,5_56 + x1,6_56 + x2,3_56 + x2,4_56 + x2,5_56
   + x2,6_56 + x3,4_56 + x3,5_56 + x3,6_56 + x4,5_56 + x4,6_56 + x5,6_56
   <= 1
 R12: x0,1_57 + x0,2_57 + x0,3_57 + x0,4_57 + x0,5_57 + x0,6_57 + x1,2_57
   + x1,3_57 + x1,4_57 + x1,5_57 + x1,6_57 + x2,3_57 + x2,4_57 + x2,5_57
   + x2,6_57 + x3,4_57 + x3,5_57 + x3,6_57 + x4,5_57 + x4,6_57 + x5,6_57
   <= 1
 R13: x0,1_68 + x0,2_68 + x0,3_68 + x0,4_68 + x0,5_68 + x0,6_68 + x1,2_68
   + x1,3_68 + x1,4_68 + x1,5_68 + x1,6_68 + x2,3_68 + x2,4_68 + x2,5_68
   + x2,6_68 + x3,4_68 + x3,5_68 + x3,6_68 + x4,5_68 + x4,6_68 + x5,6_68
   <= 1
 R14: x0,1_69 + x0,2_69 + x0,3_69 + x0,4_69 + x0,5_69 + x0,6_69 + x1,2_69
   + x1,3_69 + x1,4_69 + x1,5_69 + x1,6_69 + x2,3_69 + x2,4_69 + x2,5_69
   + x2,6_69 + x3,4_69 + x3,5_69 + x3,6_69 + x4,5_69 + x4,6_69 + x5,6_69
   <= 1
 R15: x0,1_1 + x0,1_12 + x0,1_17 + x0,1_18 + x0,1_21 + x0,1_22 + x0,1_30
   + x0,1_35 + x0,1_38 + x0,1_39 + x0,1_47 + x0,1_56 + x0,1_57 + x0,1_68
   + x0,1_69 <= 1
 R16: x0,2_1 + x0,2_12 + x0,2_17 + x0,2_18 + x0,2_21 + x0,2_22 + x0,2_30
   + x0,2_35 + x0,2_38 + x0,2_39 + x0,2_47 + x0,2_56 + x0,2_57 + x0,2_68
   + x0,2_69 <= 1
 R17: x0,3_1 + x0,3_12 + x0,3_17 + x0,3_18 + x0,3_21 + x0,3_22 + x0,3_30
   + x0,3_35 + x0,3_38 + x0,3_39 + x0,3_47 + x0,3_56 + x0,3_57 + x0,3_68
   + x0,3_69 <= 1
 R18: x0,4_1 + x0,4_12 + x0,4_17 + x0,4_18 + x0,4_21 + x0,4_22 + x0,4_30
   + x0,4_35 + x0,4_38 + x0,4_39 + x0,4_47 + x0,4_56 + x0,4_57 + x0,4_68
   + x0,4_69 <= 1
 R19: x0,5_1 + x0,5_12 + x0,5_17 + x0,5_18 + x0,5_21 + x0,5_22 + x0,5_30
   + x0,5_35 + x0,5_38 + x0,5_39 + x0,5_47 + x0,5_56 + x0,5_57 + x0,5_68
   + x0,5_69 <= 1
 R20: x0,6_1 + x0,6_12 + x0,6_17 + x0,6_18 + x0,6_21 + x0,6_22 + x0,6_30
   + x0,6_35 + x0,6_38 + x0,6_39 + x0,6_47 + x0,6_56 + x0,6_57 + x0,6_68
   + x0,6_69 <= 1
 R21: x1,2_1 + x1,2_12 + x1,2_17 + x1,2_18 + x1,2_21 + x1,2_22 + x1,2_30
   + x1,2_35 + x1,2_38 + x1,2_39 + x1,2_47 + x1,2_56 + x1,2_57 + x1,2_68
   + x1,2_69 <= 1
 R22: x1,3_1 + x1,3_12 + x1,3_17 + x1,3_18 + x1,3_21 + x1,3_22 + x1,3_30
   + x1,3_35 + x1,3_38 + x1,3_39 + x1,3_47 + x1,3_56 + x1,3_57 + x1,3_68
   + x1,3_69 <= 1
 R23: x1,4_1 + x1,4_12 + x1,4_17 + x1,4_18 + x1,4_21 + x1,4_22 + x1,4_30
   + x1,4_35 + x1,4_38 + x1,4_39 + x1,4_47 + x1,4_56 + x1,4_57 + x1,4_68
   + x1,4_69 <= 1
 R24: x1,5_1 + x1,5_12 + x1,5_17 + x1,5_18 + x1,5_21 + x1,5_22 + x1,5_30
   + x1,5_35 + x1,5_38 + x1,5_39 + x1,5_47 + x1,5_56 + x1,5_57 + x1,5_68
   + x1,5_69 <= 1
 R25: x1,6_1 + x1,6_12 + x1,6_17 + x1,6_18 + x1,6_21 + x1,6_22 + x1,6_30
   + x1,6_35 + x1,6_38 + x1,6_39 + x1,6_47 + x1,6_56 + x1,6_57 + x1,6_68
   + x1,6_69 <= 1
 R26: x2,3_1 + x2,3_12 + x2,3_17 + x2,3_18 + x2,3_21 + x2,3_22 + x2,3_30
   + x2,3_35 + x2,3_38 + x2,3_39 + x2,3_47 + x2,3_56 + x2,3_57 + x2,3_68
   + x2,3_69 <= 1
 R27: x2,4_1 + x2,4_12 + x2,4_17 + x2,4_18 + x2,4_21 + x2,4_22 + x2,4_30
   + x2,4_35 + x2,4_38 + x2,4_39 + x2,4_47 + x2,4_56 + x2,4_57 + x2,4_68
   + x2,4_69 <= 1
 R28: x2,5_1 + x2,5_12 + x2,5_17 + x2,5_18 + x2,5_21 + x2,5_22 + x2,5_30
   + x2,5_35 + x2,5_38 + x2,5_39 + x2,5_47 + x2,5_56 + x2,5_57 + x2,5_68
   + x2,5_69 <= 1
 R29: x2,6_1 + x2,6_12 + x2,6_17 + x2,6_18 + x2,6_21 + x2,6_22 + x2,6_30
   + x2,6_35 + x2,6_38 + x2,6_39 + x2,6_47 + x2,6_56 + x2,6_57 + x2,6_68
   + x2,6_69 <= 1
 R30: x3,4_1 + x3,4_12 + x3,4_17 + x3,4_18 + x3,4_21 + x3,4_22 + x3,4_30
   + x3,4_35 + x3,4_38 + x3,4_39 + x3,4_47 + x3,4_56 + x3,4_57 + x3,4_68
   + x3,4_69 <= 1
 R31: x3,5_1 + x3,5_12 + x3,5_17 + x3,5_18 + x3,5_21 + x3,5_22 + x3,5_30
   + x3,5_35 + x3,5_38 + x3,5_39 + x3,5_47 + x3,5_56 + x3,5_57 + x3,5_68
   + x3,5_69 <= 1
 R32: x3,6_1 + x3,6_12 + x3,6_17 + x3,6_18 + x3,6_21 + x3,6_22 + x3,6_30
   + x3,6_35 + x3,6_38 + x3,6_39 + x3,6_47 + x3,6_56 + x3,6_57 + x3,6_68
   + x3,6_69 <= 1
 R33: x4,5_1 + x4,5_12 + x4,5_17 + x4,5_18 + x4,5_21 + x4,5_22 + x4,5_30
   + x4,5_35 + x4,5_38 + x4,5_39 + x4,5_47 + x4,5_56 + x4,5_57 + x4,5_68
   + x4,5_69 <= 1
 R34: x4,6_1 + x4,6_12 + x4,6_17 + x4,6_18 + x4,6_21 + x4,6_22 + x4,6_30
   + x4,6_35 + x4,6_38 + x4,6_39 + x4,6_47 + x4,6_56 + x4,6_57 + x4,6_68
   + x4,6_69 <= 1
 R35: x5,6_1 + x5,6_12 + x5,6_17 + x5,6_18 + x5,6_21 + x5,6_22 + x5,6_30
   + x5,6_35 + x5,6_38 + x5,6_39 + x5,6_47 + x5,6_56 + x5,6_57 + x5,6_68
   + x5,6_69 <= 1
 R36: p0 - p1 <= -1
 R37: - x0,1_1 - p0 + p1 >= 0
 R38: 530 x0,1_1 - p0 + p1 <= 531
 R39: - 12 x0,1_12 - p0 + p1 >= 0
 R40: 530 x0,1_12 - p0 + p1 <= 542
 R41: - 17 x0,1_17 - p0 + p1 >= 0
 R42: 530 x0,1_17 - p0 + p1 <= 547
 R43: - 18 x0,1_18 - p0 + p1 >= 0
 R44: 530 x0,1_18 - p0 + p1 <= 548
 R45: - 21 x0,1_21 - p0 + p1 >= 0
 R46: 530 x0,1_21 - p0 + p1 <= 551
 R47: - 22 x0,1_22 - p0 + p1 >= 0
 R48: 530 x0,1_22 - p0 + p1 <= 552
 R49: - 30 x0,1_30 - p0 + p1 >= 0
 R50: 530 x0,1_30 - p0 + p1 <= 560
 R51: - 35 x0,1_35 - p0 + p1 >= 0
 R52: 530 x0,1_35 - p0 + p1 <= 565
 R53: - 38 x0,1_38 - p0 + p1 >= 0
 R54: 530 x0,1_38 - p0 + p1 <= 568
 R55: - 39 x0,1_39 - p0 + p1 >= 0
 R56: 530 x0,1_39 - p0 + p1 <= 569
 R57: - 47 x0,1_47 - p0 + p1 >= 0
 R58: 530 x0,1_47 - p0 + p1 <= 577
 R59: - 56 x0,1_56 - p0 + p1 >= 0
 R60: 530 x0,1_56 - p0 + p1 <= 586
 R61: - 57 x0,1_57 - p0 + p1 >= 0
 R62: 530 x0,1_57 - p0 + p1 <= 587
 R63: - 68 x0,1_68 - p0 + p1 >= 0
 R64: 530 x0,1_68 - p0 + p1 <= 598
 R65: - 69 x0,1_69 - p0 + p1 >= 0
 R66: 530 x0,1_69 - p0 + p1 <= 599
 R67: p0 - p2 <= -1
 R68: - x0,2_1 - p0 + p2 >= 0
 R69: 530 x0,2_1 - p0 + p2 <= 531
 R70: - 12 x0,2_12 - p0 + p2 >= 0
 R71: 530 x0,2_12 - p0 + p2 <= 542
 R72: - 17 x0,2_17 - p0 + p2 >= 0
 R73: 530 x0,2_17 - p0 + p2 <= 547
 R74: - 18 x0,2_18 - p0 + p2 >= 0
 R75: 530 x0,2_18 - p0 + p2 <= 548
 R76: - 21 x0,2_21 - p0 + p2 >= 0
 R77: 530 x0,2_21 - p0 + p2 <= 551
 R78: - 22 x0,2_22 - p0 + p2 >= 0
 R79: 530 x0,2_22 - p0 + p2 <= 552
 R80: - 30 x0,2_30 - p0 + p2 >= 0
 R81: 530 x0,2_30 - p0 + p2 <= 560
 R82: - 35 x0,2_35 - p0 + p2 >= 0
 R83: 530 x0,2_35 - p0 + p2 <= 565
 R84: - 38 x0,2_38 - p0 + p2 >= 0
 R85: 530 x0,2_38 - p0 + p2 <= 568
 R86: - 39 x0,2_39 - p0 + p2 >= 0
 R87: 530 x0,2_39 - p0 + p2 <= 569
 R88: - 47 x0,2_47 - p0 + p2 >= 0
 R89: 530 x0,2_47 - p0 + p2 <= 577
 R90: - 56 x0,2_56 - p0 + p2 >= 0
 R91: 530 x0,2_56 - p0 + p2 <= 586
 R92: - 57 x0,2_57 - p0 + p2 >= 0
 R93: 530 x0,2_57 - p0 + p2 <= 587
 R94: - 68 x0,2_68 - p0 + p2 >= 0
 R95: 530 x0,2_68 - p0 + p2 <= 598
 R96: - 69 x0,2_69 - p0 + p2 >= 0
 R97: 530 x0,2_69 - p0 + p2 <= 599
 R98: p0 - p3 <= -1
 R99: - x0,3_1 - p0 + p3 >= 0
 R100: 530 x0,3_1 - p0 + p3 <= 531
 R101: - 12 x0,3_12 - p0 + p3 >= 0
 R102: 530 x0,3_12 - p0 + p3 <= 542
 R103: - 17 x0,3_17 - p0 + p3 >= 0
 R104: 530 x0,3_17 - p0 + p3 <= 547
 R105: - 18 x0,3_18 - p0 + p3 >= 0
 R106: 530 x0,3_18 - p0 + p3 <= 548
 R107: - 21 x0,3_21 - p0 + p3 >= 0
 R108: 530 x0,3_21 - p0 + p3 <= 551
 R109: - 22 x0,3_22 - p0 + p3 >= 0
 R110: 530 x0,3_22 - p0 + p3 <= 552
 R111: - 30 x0,3_30 - p0 + p3 >= 0
 R112: 530 x0,3_30 - p0 + p3 <= 560
 R113: - 35 x0,3_35 - p0 + p3 >= 0
 R114: 530 x0,3_35 - p0 + p3 <= 565
 R115: - 38 x0,3_38 - p0 + p3 >= 0
 R116: 530 x0,3_38 - p0 + p3 <= 568
 R117: - 39 x0,3_39 - p0 + p3 >= 0
 R118: 530 x0,3_39 - p0 + p3 <= 569
 R119: - 47 x0,3_47 - p0 + p3 >= 0
 R120: 530 x0,3_47 - p0 + p3 <= 577
 R121: - 56 x0,3_56 - p0 + p3 >= 0
 R122: 530 x0,3_56 - p0 + p3 <= 586
 R123: - 57 x0,3_57 - p0 + p3 >= 0
 R124: 530 x0,3_57 - p0 + p3 <= 587
 R125: - 68 x0,3_68 - p0 + p3 >= 0
 R126: 530 x0,3_68 - p0 + p3 <= 598
 R127: - 69 x0,3_69 - p0 + p3 >= 0
 R128: 530 x0,3_69 - p0 + p3 <= 599
 R129: p0 - p4 <= -1
 R130: - x0,4_1 - p0 + p4 >= 0
 R131: 530 x0,4_1 - p0 + p4 <= 531
 R132: - 12 x0,4_12 - p0 + p4 >= 0
 R133: 530 x0,4_12 - p0 + p4 <= 542
 R134: - 17 x0,4_17 - p0 + p4 >= 0
 R135: 530 x0,4_17 - p0 + p4 <= 547
 R136: - 18 x0,4_18 - p0 + p4 >= 0
 R137: 530 x0,4_18 - p0 + p4 <= 548
 R138: - 21 x0,4_21 - p0 + p4 >= 0
 R139: 530 x0,4_21 - p0 + p4 <= 551
 R140: - 22 x0,4_22 - p0 + p4 >= 0
 R141: 530 x0,4_22 - p0 + p4 <= 552
 R142: - 30 x0,4_30 - p0 + p4 >= 0
 R143: 530 x0,4_30 - p0 + p4 <= 560
 R144: - 35 x0,4_35 - p0 + p4 >= 0
 R145: 530 x0,4_35 - p0 + p4 <= 565
 R146: - 38 x0,4_38 - p0 + p4 >= 0
 R147: 530 x0,4_38 - p0 + p4 <= 568
 R148: - 39 x0,4_39 - p0 + p4 >= 0
 R149: 530 x0,4_39 - p0 + p4 <= 569
 R150: - 47 x0,4_47 - p0 + p4 >= 0
 R151: 530 x0,4_47 - p0 + p4 <= 577
 R152: - 56 x0,4_56 - p0 + p4 >= 0
 R153: 530 x0,4_56 - p0 + p4 <= 586
 R154: - 57 x0,4_57 - p0 + p4 >= 0
 R155: 530 x0,4_57 - p0 + p4 <= 587
 R156: - 68 x0,4_68 - p0 + p4 >= 0
 R157: 530 x0,4_68 - p0 + p4 <= 598
 R158: - 69 x0,4_69 - p0 + p4 >= 0
 R159: 530 x0,4_69 - p0 + p4 <= 599
 R160: p0 - p5 <= -1
 R161: - x0,5_1 - p0 + p5 >= 0
 R162: 530 x0,5_1 - p0 + p5 <= 531
 R163: - 12 x0,5_12 - p0 + p5 >= 0
 R164: 530 x0,5_12 - p0 + p5 <= 542
 R165: - 17 x0,5_17 - p0 + p5 >= 0
 R166: 530 x0,5_17 - p0 + p5 <= 547
 R167: - 18 x0,5_18 - p0 + p5 >= 0
 R168: 530 x0,5_18 - p0 + p5 <= 548
 R169: - 21 x0,5_21 - p0 + p5 >= 0
 R170: 530 x0,5_21 - p0 + p5 <= 551
 R171: - 22 x0,5_22 - p0 + p5 >= 0
 R172: 530 x0,5_22 - p0 + p5 <= 552
 R173: - 30 x0,5_30 - p0 + p5 >= 0
 R174: 530 x0,5_30 - p0 + p5 <= 560
 R175: - 35 x0,5_35 - p0 + p5 >= 0
 R176: 530 x0,5_35 - p0 + p5 <= 565
 R177: - 38 x0,5_38 - p0 + p5 >= 0
 R178: 530 x0,5_38 - p0 + p5 <= 568
 R179: - 39 x0,5_39 - p0 + p5 >= 0
 R180: 530 x0,5_39 - p0 + p5 <= 569
 R181: - 47 x0,5_47 - p0 + p5 >= 0
 R182: 530 x0,5_47 - p0 + p5 <= 577
 R183: - 56 x0,5_56 - p0 + p5 >= 0
 R184: 530 x0,5_56 - p0 + p5 <= 586
 R185: - 57 x0,5_57 - p0 + p5 >= 0
 R186: 530 x0,5_57 - p0 + p5 <= 587
 R187: - 68 x0,5_68 - p0 + p5 >= 0
 R188: 530 x0,5_68 - p0 + p5 <= 598
 R189: - 69 x0,5_69 - p0 + p5 >= 0
 R190: 530 x0,5_69 - p0 + p5 <= 599
 R191: p0 - p6 <= -1
 R192: - x0,6_1 - p0 + p6 >= 0
 R193: 530 x0,6_1 - p0 + p6 <= 531
 R194: - 12 x0,6_12 - p0 + p6 >= 0
 R195: 530 x0,6_12 - p0 + p6 <= 542
 R196: - 17 x0,6_17 - p0 + p6 >= 0
 R197: 530 x0,6_17 - p0 + p6 <= 547
 R198: - 18 x0,6_18 - p0 + p6 >= 0
 R199: 530 x0,6_18 - p0 + p6 <= 548
 R200: - 21 x0,6_21 - p0 + p6 >= 0
 R201: 530 x0,6_21 - p0 + p6 <= 551
 R202: - 22 x0,6_22 - p0 + p6 >= 0
 R203: 530 x0,6_22 - p0 + p6 <= 552
 R204: - 30 x0,6_30 - p0 + p6 >= 0
 R205: 530 x0,6_30 - p0 + p6 <= 560
 R206: - 35 x0,6_35 - p0 + p6 >= 0
 R207: 530 x0,6_35 - p0 + p6 <= 565
 R208: - 38 x0,6_38 - p0 + p6 >= 0
 R209: 530 x0,6_38 - p0 + p6 <= 568
 R210: - 39 x0,6_39 - p0 + p6 >= 0
 R211: 530 x0,6_39 - p0 + p6 <= 569
 R212: - 47 x0,6_47 - p0 + p6 >= 0
 R213: 530 x0,6_47 - p0 + p6 <= 577
 R214: - 56 x0,6_56 - p0 + p6 >= 0
 R215: 530 x0,6_56 - p0 + p6 <= 586
 R216: - 57 x0,6_57 - p0 + p6 >= 0
 R217: 530 x0,6_57 - p0 + p6 <= 587
 R218: - 68 x0,6_68 - p0 + p6 >= 0
 R219: 530 x0,6_68 - p0 + p6 <= 598
 R220: - 69 x0,6_69 - p0 + p6 >= 0
 R221: 530 x0,6_69 - p0 + p6 <= 599
 R222: p1 - p2 <= -1
 R223: - x1,2_1 - p1 + p2 >= 0
 R224: 530 x1,2_1 - p1 + p2 <= 531
 R225: - 12 x1,2_12 - p1 + p2 >= 0
 R226: 530 x1,2_12 - p1 + p2 <= 542
 R227: - 17 x1,2_17 - p1 + p2 >= 0
 R228: 530 x1,2_17 - p1 + p2 <= 547
 R229: - 18 x1,2_18 - p1 + p2 >= 0
 R230: 530 x1,2_18 - p1 + p2 <= 548
 R231: - 21 x1,2_21 - p1 + p2 >= 0
 R232: 530 x1,2_21 - p1 + p2 <= 551
 R233: - 22 x1,2_22 - p1 + p2 >= 0
 R234: 530 x1,2_22 - p1 + p2 <= 552
 R235: - 30 x1,2_30 - p1 + p2 >= 0
 R236: 530 x1,2_30 - p1 + p2 <= 560
 R237: - 35 x1,2_35 - p1 + p2 >= 0
 R238: 530 x1,2_35 - p1 + p2 <= 565
 R239: - 38 x1,2_38 - p1 + p2 >= 0
 R240: 530 x1,2_38 - p1 + p2 <= 568
 R241: - 39 x1,2_39 - p1 + p2 >= 0
 R242: 530 x1,2_39 - p1 + p2 <= 569
 R243: - 47 x1,2_47 - p1 + p2 >= 0
 R244: 530 x1,2_47 - p1 + p2 <= 577
 R245: - 56 x1,2_56 - p1 + p2 >= 0
 R246: 530 x1,2_56 - p1 + p2 <= 586
 R247: - 57 x1,2_57 - p1 + p2 >= 0
 R248: 530 x1,2_57 - p1 + p2 <= 587
 R249: - 68 x1,2_68 - p1 + p2 >= 0
 R250: 530 x1,2_68 - p1 + p2 <= 598
 R251: - 69 x1,2_69 - p1 + p2 >= 0
 R252: 530 x1,2_69 - p1 + p2 <= 599
 R253: p1 - p3 <= -1
 R254: - x1,3_1 - p1 + p3 >= 0
 R255: 530 x1,3_1 - p1 + p3 <= 531
 R256: - 12 x1,3_12 - p1 + p3 >= 0
 R257: 530 x1,3_12 - p1 + p3 <= 542
 R258: - 17 x1,3_17 - p1 + p3 >= 0
 R259: 530 x1,3_17 - p1 + p3 <= 547
 R260: - 18 x1,3_18 - p1 + p3 >= 0
 R261: 530 x1,3_18 - p1 + p3 <= 548
 R262: - 21 x1,3_21 - p1 + p3 >= 0
 R263: 530 x1,3_21 - p1 + p3 <= 551
 R264: - 22 x1,3_22 - p1 + p3 >= 0
 R265: 530 x1,3_22 - p1 + p3 <= 552
 R266: - 30 x1,3_30 - p1 + p3 >= 0
 R267: 530 x1,3_30 - p1 + p3 <= 560
 R268: - 35 x1,3_35 - p1 + p3 >= 0
 R269: 530 x1,3_35 - p1 + p3 <= 565
 R270: - 38 x1,3_38 - p1 + p3 >= 0
 R271: 530 x1,3_38 - p1 + p3 <= 568
 R272: - 39 x1,3_39 - p1 + p3 >= 0
 R273: 530 x1,3_39 - p1 + p3 <= 569
 R274: - 47 x1,3_47 - p1 + p3 >= 0
 R275: 530 x1,3_47 - p1 + p3 <= 577
 R276: - 56 x1,3_56 - p1 + p3 >= 0
 R277: 530 x1,3_56 - p1 + p3 <= 586
 R278: - 57 x1,3_57 - p1 + p3 >= 0
 R279: 530 x1,3_57 - p1 + p3 <= 587
 R280: - 68 x1,3_68 - p1 + p3 >= 0
 R281: 530 x1,3_68 - p1 + p3 <= 598
 R282: - 69 x1,3_69 - p1 + p3 >= 0
 R283: 530 x1,3_69 - p1 + p3 <= 599
 R284: p1 - p4 <= -1
 R285: - x1,4_1 - p1 + p4 >= 0
 R286: 530 x1,4_1 - p1 + p4 <= 531
 R287: - 12 x1,4_12 - p1 + p4 >= 0
 R288: 530 x1,4_12 - p1 + p4 <= 542
 R289: - 17 x1,4_17 - p1 + p4 >= 0
 R290: 530 x1,4_17 - p1 + p4 <= 547
 R291: - 18 x1,4_18 - p1 + p4 >= 0
 R292: 530 x1,4_18 - p1 + p4 <= 548
 R293: - 21 x1,4_21 - p1 + p4 >= 0
 R294: 530 x1,4_21 - p1 + p4 <= 551
 R295: - 22 x1,4_22 - p1 + p4 >= 0
 R296: 530 x1,4_22 - p1 + p4 <= 552
 R297: - 30 x1,4_30 - p1 + p4 >= 0
 R298: 530 x1,4_30 - p1 + p4 <= 560
 R299: - 35 x1,4_35 - p1 + p4 >= 0
 R300: 530 x1,4_35 - p1 + p4 <= 565
 R301: - 38 x1,4_38 - p1 + p4 >= 0
 R302: 530 x1,4_38 - p1 + p4 <= 568
 R303: - 39 x1,4_39 - p1 + p4 >= 0
 R304: 530 x1,4_39 - p1 + p4 <= 569
 R305: - 47 x1,4_47 - p1 + p4 >= 0
 R306: 530 x1,4_47 - p1 + p4 <= 577
 R307: - 56 x1,4_56 - p1 + p4 >= 0
 R308: 530 x1,4_56 - p1 + p4 <= 586
 R309: - 57 x1,4_57 - p1 + p4 >= 0
 R310: 530 x1,4_57 - p1 + p4 <= 587
 R311: - 68 x1,4_68 - p1 + p4 >= 0
 R312: 530 x1,4_68 - p1 + p4 <= 598
 R313: - 69 x1,4_69 - p1 + p4 >= 0
 R314: 530 x1,4_69 - p1 + p4 <= 599
 R315: p1 - p5 <= -1
 R316: - x1,5_1 - p1 + p5 >= 0
 R317: 530 x1,5_1 - p1 + p5 <= 531
 R318: - 12 x1,5_12 - p1 + p5 >= 0
 R319: 530 x1,5_12 - p1 + p5 <= 542
 R320: - 17 x1,5_17 - p1 + p5 >= 0
 R321: 530 x1,5_17 - p1 + p5 <= 547
 R322: - 18 x1,5_18 - p1 + p5 >= 0
 R323: 530 x1,5_18 - p1 + p5 <= 548
 R324: - 21 x1,5_21 - p1 + p5 >= 0
 R325: 530 x1,5_21 - p1 + p5 <= 551
 R326: - 22 x1,5_22 - p1 + p5 >= 0
 R327: 530 x1,5_22 - p1 + p5 <= 552
 R328: - 30 x1,5_30 - p1 + p5 >= 0
 R329: 530 x1,5_30 - p1 + p5 <= 560
 R330: - 35 x1,5_35 - p1 + p5 >= 0
 R331: 530 x1,5_35 - p1 + p5 <= 565
 R332: - 38 x1,5_38 - p1 + p5 >= 0
 R333: 530 x1,5_38 - p1 + p5 <= 568
 R334: - 39 x1,5_39 - p1 + p5 >= 0
 R335: 530 x1,5_39 - p1 + p5 <= 569
 R336: - 47 x1,5_47 - p1 + p5 >= 0
 R337: 530 x1,5_47 - p1 + p5 <= 577
 R338: - 56 x1,5_56 - p1 + p5 >= 0
 R339: 530 x1,5_56 - p1 + p5 <= 586
 R340: - 57 x1,5_57 - p1 + p5 >= 0
 R341: 530 x1,5_57 - p1 + p5 <= 587
 R342: - 68 x1,5_68 - p1 + p5 >= 0
 R343: 530 x1,5_68 - p1 + p5 <= 598
 R344: - 69 x1,5_69 - p1 + p5 >= 0
 R345: 530 x1,5_69 - p1 + p5 <= 599
 R346: p1 - p6 <= -1
 R347: - x1,6_1 - p1 + p6 >= 0
 R348: 530 x1,6_1 - p1 + p6 <= 531
 R349: - 12 x1,6_12 - p1 + p6 >= 0
 R350: 530 x1,6_12 - p1 + p6 <= 542
 R351: - 17 x1,6_17 - p1 + p6 >= 0
 R352: 530 x1,6_17 - p1 + p6 <= 547
 R353: - 18 x1,6_18 - p1 + p6 >= 0
 R354: 530 x1,6_18 - p1 + p6 <= 548
 R355: - 21 x1,6_21 - p1 + p6 >= 0
 R356: 530 x1,6_21 - p1 + p6 <= 551
 R357: - 22 x1,6_22 - p1 + p6 >= 0
 R358: 530 x1,6_22 - p1 + p6 <= 552
 R359: - 30 x1,6_30 - p1 + p6 >= 0
 R360: 530 x1,6_30 - p1 + p6 <= 560
 R361: - 35 x1,6_35 - p1 + p6 >= 0
 R362: 530 x1,6_35 - p1 + p6 <= 565
 R363: - 38 x1,6_38 - p1 + p6 >= 0
 R364: 530 x1,6_38 - p1 + p6 <= 568
 R365: - 39 x1,6_39 - p1 + p6 >= 0
 R366: 530 x1,6_39 - p1 + p6 <= 569
 R367: - 47 x1,6_47 - p1 + p6 >= 0
 R368: 530 x1,6_47 - p1 + p6 <= 577
 R369: - 56 x1,6_56 - p1 + p6 >= 0
 R370: 530 x1,6_56 - p1 + p6 <= 586
 R371: - 57 x1,6_57 - p1 + p6 >= 0
 R372: 530 x1,6_57 - p1 + p6 <= 587
 R373: - 68 x1,6_68 - p1 + p6 >= 0
 R374: 530 x1,6_68 - p1 + p6 <= 598
 R375: - 69 x1,6_69 - p1 + p6 >= 0
 R376: 530 x1,6_69 - p1 + p6 <= 599
 R377: p2 - p3 <= -1
 R378: - x2,3_1 - p2 + p3 >= 0
 R379: 530 x2,3_1 - p2 + p3 <= 531
 R380: - 12 x2,3_12 - p2 + p3 >= 0
 R381: 530 x2,3_12 - p2 + p3 <= 542
 R382: - 17 x2,3_17 - p2 + p3 >= 0
 R383: 530 x2,3_17 - p2 + p3 <= 547
 R384: - 18 x2,3_18 - p2 + p3 >= 0
 R385: 530 x2,3_18 - p2 + p3 <= 548
 R386: - 21 x2,3_21 - p2 + p3 >= 0
 R387: 530 x2,3_21 - p2 + p3 <= 551
 R388: - 22 x2,3_22 - p2 + p3 >= 0
 R389: 530 x2,3_22 - p2 + p3 <= 552
 R390: - 30 x2,3_30 - p2 + p3 >= 0
 R391: 530 x2,3_30 - p2 + p3 <= 560
 R392: - 35 x2,3_35 - p2 + p3 >= 0
 R393: 530 x2,3_35 - p2 + p3 <= 565
 R394: - 38 x2,3_38 - p2 + p3 >= 0
 R395: 530 x2,3_38 - p2 + p3 <= 568
 R396: - 39 x2,3_39 - p2 + p3 >= 0
 R397: 530 x2,3_39 - p2 + p3 <= 569
 R398: - 47 x2,3_47 - p2 + p3 >= 0
 R399: 530 x2,3_47 - p2 + p3 <= 577
 R400: - 56 x2,3_56 - p2 + p3 >= 0
 R401: 530 x2,3_56 - p2 + p3 <= 586
 R402: - 57 x2,3_57 - p2 + p3 >= 0
 R403: 530 x2,3_57 - p2 + p3 <= 587
 R404: - 68 x2,3_68 - p2 + p3 >= 0
 R405: 530 x2,3_68 - p2 + p3 <= 598
 R406: - 69 x2,3_69 - p2 + p3 >= 0
 R407: 530 x2,3_69 - p2 + p3 <= 599
 R408: p2 - p4 <= -1
 R409: - x2,4_1 - p2 + p4 >= 0
 R410: 530 x2,4_1 - p2 + p4 <= 531
 R411: - 12 x2,4_12 - p2 + p4 >= 0
 R412: 530 x2,4_12 - p2 + p4 <= 542
 R413: - 17 x2,4_17 - p2 + p4 >= 0
 R414: 530 x2,4_17 - p2 + p4 <= 547
 R415: - 18 x2,4_18 - p2 + p4 >= 0
 R416: 530 x2,4_18 - p2 + p4 <= 548
 R417: - 21 x2,4_21 - p2 + p4 >= 0
 R418: 530 x2,4_21 - p2 + p4 <= 551
 R419: - 22 x2,4_22 - p2 + p4 >= 0
 R420: 530 x2,4_22 - p2 + p4 <= 552
 R421: - 30 x2,4_30 - p2 + p4 >= 0
 R422: 530 x2,4_30 - p2 + p4 <= 560
 R423: - 35 x2,4_35 - p2 + p4 >= 0
 R424: 530 x2,4_35 - p2 + p4 <= 565
 R425: - 38 x2,4_38 - p2 + p4 >= 0
 R426: 530 x2,4_38 - p2 + p4 <= 568
 R427: - 39 x2,4_39 - p2 + p4 >= 0
 R428: 530 x2,4_39 - p2 + p4 <= 569
 R429: - 47 x2,4_47 - p2 + p4 >= 0
 R430: 530 x2,4_47 - p2 + p4 <= 577
 R431: - 56 x2,4_56 - p2 + p4 >= 0
 R432: 530 x2,4_56 - p2 + p4 <= 586
 R433: - 57 x2,4_57 - p2 + p4 >= 0
 R434: 530 x2,4_57 - p2 + p4 <= 587
 R435: - 68 x2,4_68 - p2 + p4 >= 0
 R436: 530 x2,4_68 - p2 + p4 <= 598
 R437: - 69 x2,4_69 - p2 + p4 >= 0
 R438: 530 x2,4_69 - p2 + p4 <= 599
 R439: p2 - p5 <= -1
 R440: - x2,5_1 - p2 + p5 >= 0
 R441: 530 x2,5_1 - p2 + p5 <= 531
 R442: - 12 x2,5_12 - p2 + p5 >= 0
 R443: 530 x2,5_12 - p2 + p5 <= 542
 R444: - 17 x2,5_17 - p2 + p5 >= 0
 R445: 530 x2,5_17 - p2 + p5 <= 547
 R446: - 18 x2,5_18 - p2 + p5 >= 0
 R447: 530 x2,5_18 - p2 + p5 <= 548
 R448: - 21 x2,5_21 - p2 + p5 >= 0
 R449: 530 x2,5_21 - p2 + p5 <= 551
 R450: - 22 x2,5_22 - p2 + p5 >= 0
 R451: 530 x2,5_22 - p2 + p5 <= 552
 R452: - 30 x2,5_30 - p2 + p5 >= 0
 R453: 530 x2,5_30 - p2 + p5 <= 560
 R454: - 35 x2,5_35 - p2 + p5 >= 0
 R455: 530 x2,5_35 - p2 + p5 <= 565
 R456: - 38 x2,5_38 - p2 + p5 >= 0
 R457: 530 x2,5_38 - p2 + p5 <= 568
 R458: - 39 x2,5_39 - p2 + p5 >= 0
 R459: 530 x2,5_39 - p2 + p5 <= 569
 R460: - 47 x2,5_47 - p2 + p5 >= 0
 R461: 530 x2,5_47 - p2 + p5 <= 577
 R462: - 56 x2,5_56 - p2 + p5 >= 0
 R463: 530 x2,5_56 - p2 + p5 <= 586
 R464: - 57 x2,5_57 - p2 + p5 >= 0
 R465: 530 x2,5_57 - p2 + p5 <= 587
 R466: - 68 x2,5_68 - p2 + p5 >= 0
 R467: 530 x2,5_68 - p2 + p5 <= 598
 R468: - 69 x2,5_69 - p2 + p5 >= 0
 R469: 530 x2,5_69 - p2 + p5 <= 599
 R470: p2 - p6 <= -1
 R471: - x2,6_1 - p2 + p6 >= 0
 R472: 530 x2,6_1 - p2 + p6 <= 531
 R473: - 12 x2,6_12 - p2 + p6 >= 0
 R474: 530 x2,6_12 - p2 + p6 <= 542
 R475: - 17 x2,6_17 - p2 + p6 >= 0
 R476: 530 x2,6_17 - p2 + p6 <= 547
 R477: - 18 x2,6_18 - p2 + p6 >= 0
 R478: 530 x2,6_18 - p2 + p6 <= 548
 R479: - 21 x2,6_21 - p2 + p6 >= 0
 R480: 530 x2,6_21 - p2 + p6 <= 551
 R481: - 22 x2,6_22 - p2 + p6 >= 0
 R482: 530 x2,6_22 - p2 + p6 <= 552
 R483: - 30 x2,6_30 - p2 + p6 >= 0
 R484: 530 x2,6_30 - p2 + p6 <= 560
 R485: - 35 x2,6_35 - p2 + p6 >= 0
 R486: 530 x2,6_35 - p2 + p6 <= 565
 R487: - 38 x2,6_38 - p2 + p6 >= 0
 R488: 530 x2,6_38 - p2 + p6 <= 568
 R489: - 39 x2,6_39 - p2 + p6 >= 0
 R490: 530 x2,6_39 - p2 + p6 <= 569
 R491: - 47 x2,6_47 - p2 + p6 >= 0
 R492: 530 x2,6_47 - p2 + p6 <= 577
 R493: - 56 x2,6_56 - p2 + p6 >= 0
 R494: 530 x2,6_56 - p2 + p6 <= 586
 R495: - 57 x2,6_57 - p2 + p6 >= 0
 R496: 530 x2,6_57 - p2 + p6 <= 587
 R497: - 68 x2,6_68 - p2 + p6 >= 0
 R498: 530 x2,6_68 - p2 + p6 <= 598
 R499: - 69 x2,6_69 - p2 + p6 >= 0
 R500: 530 x2,6_69 - p2 + p6 <= 599
 R501: p3 - p4 <= -1
 R502: - x3,4_1 - p3 + p4 >= 0
 R503: 530 x3,4_1 - p3 + p4 <= 531
 R504: - 12 x3,4_12 - p3 + p4 >= 0
 R505: 530 x3,4_12 - p3 + p4 <= 542
 R506: - 17 x3,4_17 - p3 + p4 >= 0
 R507: 530 x3,4_17 - p3 + p4 <= 547
 R508: - 18 x3,4_18 - p3 + p4 >= 0
 R509: 530 x3,4_18 - p3 + p4 <= 548
 R510: - 21 x3,4_21 - p3 + p4 >= 0
 R511: 530 x3,4_21 - p3 + p4 <= 551
 R512: - 22 x3,4_22 - p3 + p4 >= 0
 R513: 530 x3,4_22 - p3 + p4 <= 552
 R514: - 30 x3,4_30 - p3 + p4 >= 0
 R515: 530 x3,4_30 - p3 + p4 <= 560
 R516: - 35 x3,4_35 - p3 + p4 >= 0
 R517: 530 x3,4_35 - p3 + p4 <= 565
 R518: - 38 x3,4_38 - p3 + p4 >= 0
 R519: 530 x3,4_38 - p3 + p4 <= 568
 R520: - 39 x3,4_39 - p3 + p4 >= 0
 R521: 530 x3,4_39 - p3 + p4 <= 569
 R522: - 47 x3,4_47 - p3 + p4 >= 0
 R523: 530 x3,4_47 - p3 + p4 <= 577
 R524: - 56 x3,4_56 - p3 + p4 >= 0
 R525: 530 x3,4_56 - p3 + p4 <= 586
 R526: - 57 x3,4_57 - p3 + p4 >= 0
 R527: 530 x3,4_57 - p3 + p4 <= 587
 R528: - 68 x3,4_68 - p3 + p4 >= 0
 R529: 530 x3,4_68 - p3 + p4 <= 598
 R530: - 69 x3,4_69 - p3 + p4 >= 0
 R531: 530 x3,4_69 - p3 + p4 <= 599
 R532: p3 - p5 <= -1
 R533: - x3,5_1 - p3 + p5 >= 0
 R534: 530 x3,5_1 - p3 + p5 <= 531
 R535: - 12 x3,5_12 - p3 + p5 >= 0
 R536: 530 x3,5_12 - p3 + p5 <= 542
 R537: - 17 x3,5_17 - p3 + p5 >= 0
 R538: 530 x3,5_17 - p3 + p5 <= 547
 R539: - 18 x3,5_18 - p3 + p5 >= 0
 R540: 530 x3,5_18 - p3 + p5 <= 548
 R541: - 21 x3,5_21 - p3 + p5 >= 0
 R542: 530 x3,5_21 - p3 + p5 <= 551
 R543: - 22 x3,5_22 - p3 + p5 >= 0
 R544: 530 x3,5_22 - p3 + p5 <= 552
 R545: - 30 x3,5_30 - p3 + p5 >= 0
 R546: 530 x3,5_30 - p3 + p5 <= 560
 R547: - 35 x3,5_35 - p3 + p5 >= 0
 R548: 530 x3,5_35 - p3 + p5 <= 565
 R549: - 38 x3,5_38 - p3 + p5 >= 0
 R550: 530 x3,5_38 - p3 + p5 <= 568
 R551: - 39 x3,5_39 - p3 + p5 >= 0
 R552: 530 x3,5_39 - p3 + p5 <= 569
 R553: - 47 x3,5_47 - p3 + p5 >= 0
 R554: 530 x3,5_47 - p3 + p5 <= 577
 R555: - 56 x3,5_56 - p3 + p5 >= 0
 R556: 530 x3,5_56 - p3 + p5 <= 586
 R557: - 57 x3,5_57 - p3 + p5 >= 0
 R558: 530 x3,5_57 - p3 + p5 <= 587
 R559: - 68 x3,5_68 - p3 + p5 >= 0
 R560: 530 x3,5_68 - p3 + p5 <= 598
 R561: - 69 x3,5_69 - p3 + p5 >= 0
 R562: 530 x3,5_69 - p3 + p5 <= 599
 R563: p3 - p6 <= -1
 R564: - x3,6_1 - p3 + p6 >= 0
 R565: 530 x3,6_1 - p3 + p6 <= 531
 R566: - 12 x3,6_12 - p3 + p6 >= 0
 R567: 530 x3,6_12 - p3 + p6 <= 542
 R568: - 17 x3,6_17 - p3 + p6 >= 0
 R569: 530 x3,6_17 - p3 + p6 <= 547
 R570: - 18 x3,6_18 - p3 + p6 >= 0
 R571: 530 x3,6_18 - p3 + p6 <= 548
 R572: - 21 x3,6_21 - p3 + p6 >= 0
 R573: 530 x3,6_21 - p3 + p6 <= 551
 R574: - 22 x3,6_22 - p3 + p6 >= 0
 R575: 530 x3,6_22 - p3 + p6 <= 552
 R576: - 30 x3,6_30 - p3 + p6 >= 0
 R577: 530 x3,6_30 - p3 + p6 <= 560
 R578: - 35 x3,6_35 - p3 + p6 >= 0
 R579: 530 x3,6_35 - p3 + p6 <= 565
 R580: - 38 x3,6_38 - p3 + p6 >= 0
 R581: 530 x3,6_38 - p3 + p6 <= 568
 R582: - 39 x3,6_39 - p3 + p6 >= 0
 R583: 530 x3,6_39 - p3 + p6 <= 569
 R584: - 47 x3,6_47 - p3 + p6 >= 0
 R585: 530 x3,6_47 - p3 + p6 <= 577
 R586: - 56 x3,6_56 - p3 + p6 >= 0
 R587: 530 x3,6_56 - p3 + p6 <= 586
 R588: - 57 x3,6_57 - p3 + p6 >= 0
 R589: 530 x3,6_57 - p3 + p6 <= 587
 R590: - 68 x3,6_68 - p3 + p6 >= 0
 R591: 530 x3,6_68 - p3 + p6 <= 598
 R592: - 69 x3,6_69 - p3 + p6 >= 0
 R593: 530 x3,6_69 - p3 + p6 <= 599
 R594: p4 - p5 <= -1
 R595: - x4,5_1 - p4 + p5 >= 0
 R596: 530 x4,5_1 - p4 + p5 <= 531
 R597: - 12 x4,5_12 - p4 + p5 >= 0
 R598: 530 x4,5_12 - p4 + p5 <= 542
 R599: - 17 x4,5_17 - p4 + p5 >= 0
 R600: 530 x4,5_17 - p4 + p5 <= 547
 R601: - 18 x4,5_18 - p4 + p5 >= 0
 R602: 530 x4,5_18 - p4 + p5 <= 548
 R603: - 21 x4,5_21 - p4 + p5 >= 0
 R604: 530 x4,5_21 - p4 + p5 <= 551
 R605: - 22 x4,5_22 - p4 + p5 >= 0
 R606: 530 x4,5_22 - p4 + p5 <= 552
 R607: - 30 x4,5_30 - p4 + p5 >= 0
 R608: 530 x4,5_30 - p4 + p5 <= 560
 R609: - 35 x4,5_35 - p4 + p5 >= 0
 R610: 530 x4,5_35 - p4 + p5 <= 565
 R611: - 38 x4,5_38 - p4 + p5 >= 0
 R612: 530 x4,5_38 - p4 + p5 <= 568
 R613: - 39 x4,5_39 - p4 + p5 >= 0
 R614: 530 x4,5_39 - p4 + p5 <= 569
 R615: - 47 x4,5_47 - p4 + p5 >= 0
 R616: 530 x4,5_47 - p4 + p5 <= 577
 R617: - 56 x4,5_56 - p4 + p5 >= 0
 R618: 530 x4,5_56 - p4 + p5 <= 586
 R619: - 57 x4,5_57 - p4 + p5 >= 0
 R620: 530 x4,5_57 - p4 + p5 <= 587
 R621: - 68 x4,5_68 - p4 + p5 >= 0
 R622: 530 x4,5_68 - p4 + p5 <= 598
 R623: - 69 x4,5_69 - p4 + p5 >= 0
 R624: 530 x4,5_69 - p4 + p5 <= 599
 R625: p4 - p6 <= -1
 R626: - x4,6_1 - p4 + p6 >= 0
 R627: 530 x4,6_1 - p4 + p6 <= 531
 R628: - 12 x4,6_12 - p4 + p6 >= 0
 R629: 530 x4,6_12 - p4 + p6 <= 542
 R630: - 17 x4,6_17 - p4 + p6 >= 0
 R631: 530 x4,6_17 - p4 + p6 <= 547
 R632: - 18 x4,6_18 - p4 + p6 >= 0
 R633: 530 x4,6_18 - p4 + p6 <= 548
 R634: - 21 x4,6_21 - p4 + p6 >= 0
 R635: 530 x4,6_21 - p4 + p6 <= 551
 R636: - 22 x4,6_22 - p4 + p6 >= 0
 R637: 530 x4,6_22 - p4 + p6 <= 552
 R638: - 30 x4,6_30 - p4 + p6 >= 0
 R639: 530 x4,6_30 - p4 + p6 <= 560
 R640: - 35 x4,6_35 - p4 + p6 >= 0
 R641: 530 x4,6_35 - p4 + p6 <= 565
 R642: - 38 x4,6_38 - p4 + p6 >= 0
 R643: 530 x4,6_38 - p4 + p6 <= 568
 R644: - 39 x4,6_39 - p4 + p6 >= 0
 R645: 530 x4,6_39 - p4 + p6 <= 569
 R646: - 47 x4,6_47 - p4 + p6 >= 0
 R647: 530 x4,6_47 - p4 + p6 <= 577
 R648: - 56 x4,6_56 - p4 + p6 >= 0
 R649: 530 x4,6_56 - p4 + p6 <= 586
 R650: - 57 x4,6_57 - p4 + p6 >= 0
 R651: 530 x4,6_57 - p4 + p6 <= 587
 R652: - 68 x4,6_68 - p4 + p6 >= 0
 R653: 530 x4,6_68 - p4 + p6 <= 598
 R654: - 69 x4,6_69 - p4 + p6 >= 0
 R655: 530 x4,6_69 - p4 + p6 <= 599
 R656: p5 - p6 <= -1
 R657: - x5,6_1 - p5 + p6 >= 0
 R658: 530 x5,6_1 - p5 + p6 <= 531
 R659: - 12 x5,6_12 - p5 + p6 >= 0
 R660: 530 x5,6_12 - p5 + p6 <= 542
 R661: - 17 x5,6_17 - p5 + p6 >= 0
 R662: 530 x5,6_17 - p5 + p6 <= 547
 R663: - 18 x5,6_18 - p5 + p6 >= 0
 R664: 530 x5,6_18 - p5 + p6 <= 548
 R665: - 21 x5,6_21 - p5 + p6 >= 0
 R666: 530 x5,6_21 - p5 + p6 <= 551
 R667: - 22 x5,6_22 - p5 + p6 >= 0
 R668: 530 x5,6_22 - p5 + p6 <= 552
 R669: - 30 x5,6_30 - p5 + p6 >= 0
 R670: 530 x5,6_30 - p5 + p6 <= 560
 R671: - 35 x5,6_35 - p5 + p6 >= 0
 R672: 530 x5,6_35 - p5 + p6 <= 565
 R673: - 38 x5,6_38 - p5 + p6 >= 0
 R674: 530 x5,6_38 - p5 + p6 <= 568
 R675: - 39 x5,6_39 - p5 + p6 >= 0
 R676: 530 x5,6_39 - p5 + p6 <= 569
 R677: - 47 x5,6_47 - p5 + p6 >= 0
 R678: 530 x5,6_47 - p5 + p6 <= 577
 R679: - 56 x5,6_56 - p5 + p6 >= 0
 R680: 530 x5,6_56 - p5 + p6 <= 586
 R681: - 57 x5,6_57 - p5 + p6 >= 0
 R682: 530 x5,6_57 - p5 + p6 <= 587
 R683: - 68 x5,6_68 - p5 + p6 >= 0
 R684: 530 x5,6_68 - p5 + p6 <= 598
 R685: - 69 x5,6_69 - p5 + p6 >= 0
 R686: 530 x5,6_69 - p5 + p6 <= 599
Bounds
Binaries
 x0,1_1 x0,1_12 x0,1_17 x0,1_18 x0,1_21 x0,1_22 x0,1_30 x0,1_35 x0,1_38
 x0,1_39 x0,1_47 x0,1_56 x0,1_57 x0,1_68 x0,1_69 x0,2_1 x0,2_12 x0,2_17
 x0,2_18 x0,2_21 x0,2_22 x0,2_30 x0,2_35 x0,2_38 x0,2_39 x0,2_47 x0,2_56
 x0,2_57 x0,2_68 x0,2_69 x0,3_1 x0,3_12 x0,3_17 x0,3_18 x0,3_21 x0,3_22
 x0,3_30 x0,3_35 x0,3_38 x0,3_39 x0,3_47 x0,3_56 x0,3_57 x0,3_68 x0,3_69
 x0,4_1 x0,4_12 x0,4_17 x0,4_18 x0,4_21 x0,4_22 x0,4_30 x0,4_35 x0,4_38
 x0,4_39 x0,4_47 x0,4_56 x0,4_57 x0,4_68 x0,4_69 x0,5_1 x0,5_12 x0,5_17
 x0,5_18 x0,5_21 x0,5_22 x0,5_30 x0,5_35 x0,5_38 x0,5_39 x0,5_47 x0,5_56
 x0,5_57 x0,5_68 x0,5_69 x0,6_1 x0,6_12 x0,6_17 x0,6_18 x0,6_21 x0,6_22
 x0,6_30 x0,6_35 x0,6_38 x0,6_39 x0,6_47 x0,6_56 x0,6_57 x0,6_68 x0,6_69
 x1,2_1 x1,2_12 x1,2_17 x1,2_18 x1,2_21 x1,2_22 x1,2_30 x1,2_35 x1,2_38
 x1,2_39 x1,2_47 x1,2_56 x1,2_57 x1,2_68 x1,2_69 x1,3_1 x1,3_12 x1,3_17
 x1,3_18 x1,3_21 x1,3_22 x1,3_30 x1,3_35 x1,3_38 x1,3_39 x1,3_47 x1,3_56
 x1,3_57 x1,3_68 x1,3_69 x1,4_1 x1,4_12 x1,4_17 x1,4_18 x1,4_21 x1,4_22
 x1,4_30 x1,4_35 x1,4_38 x1,4_39 x1,4_47 x1,4_56 x1,4_57 x1,4_68 x1,4_69
 x1,5_1 x1,5_12 x1,5_17 x1,5_18 x1,5_21 x1,5_22 x1,5_30 x1,5_35 x1,5_38
 x1,5_39 x1,5_47 x1,5_56 x1,5_57 x1,5_68 x1,5_69 x1,6_1 x1,6_12 x1,6_17
 x1,6_18 x1,6_21 x1,6_22 x1,6_30 x1,6_35 x1,6_38 x1,6_39 x1,6_47 x1,6_56
 x1,6_57 x1,6_68 x1,6_69 x2,3_1 x2,3_12 x2,3_17 x2,3_18 x2,3_21 x2,3_22
 x2,3_30 x2,3_35 x2,3_38 x2,3_39 x2,3_47 x2,3_56 x2,3_57 x2,3_68 x2,3_69
 x2,4_1 x2,4_12 x2,4_17 x2,4_18 x2,4_21 x2,4_22 x2,4_30 x2,4_35 x2,4_38
 x2,4_39 x2,4_47 x2,4_56 x2,4_57 x2,4_68 x2,4_69 x2,5_1 x2,5_12 x2,5_17
 x2,5_18 x2,5_21 x2,5_22 x2,5_30 x2,5_35 x2,5_38 x2,5_39 x2,5_47 x2,5_56
 x2,5_57 x2,5_68 x2,5_69 x2,6_1 x2,6_12 x2,6_17 x2,6_18 x2,6_21 x2,6_22
 x2,6_30 x2,6_35 x2,6_38 x2,6_39 x2,6_47 x2,6_56 x2,6_57 x2,6_68 x2,6_69
 x3,4_1 x3,4_12 x3,4_17 x3,4_18 x3,4_21 x3,4_22 x3,4_30 x3,4_35 x3,4_38
 x3,4_39 x3,4_47 x3,4_56 x3,4_57 x3,4_68 x3,4_69 x3,5_1 x3,5_12 x3,5_17
 x3,5_18 x3,5_21 x3,5_22 x3,5_30 x3,5_35 x3,5_38 x3,5_39 x3,5_47 x3,5_56
 x3,5_57 x3,5_68 x3,5_69 x3,6_1 x3,6_12 x3,6_17 x3,6_18 x3,6_21 x3,6_22
 x3,6_30 x3,6_35 x3,6_38 x3,6_39 x3,6_47 x3,6_56 x3,6_57 x3,6_68 x3,6_69
 x4,5_1 x4,5_12 x4,5_17 x4,5_18 x4,5_21 x4,5_22 x4,5_30 x4,5_35 x4,5_38
 x4,5_39 x4,5_47 x4,5_56 x4,5_57 x4,5_68 x4,5_69 x4,6_1 x4,6_12 x4,6_17
 x4,6_18 x4,6_21 x4,6_22 x4,6_30 x4,6_35 x4,6_38 x4,6_39 x4,6_47 x4,6_56
 x4,6_57 x4,6_68 x4,6_69 x5,6_1 x5,6_12 x5,6_17 x5,6_18 x5,6_21 x5,6_22
 x5,6_30 x5,6_35 x5,6_38 x5,6_39 x5,6_47 x5,6_56 x5,6_57 x5,6_68 x5,6_69
Generals
 p0 p1 p2 p3 p4 p5 p6
End
